p edge 38 187
e 1 2
e 1 3
e 1 4
e 1 6
e 1 7
e 1 8
e 1 9
e 1 11
e 1 12
e 1 13
e 1 14
e 1 15
e 1 20
e 1 21
e 1 22
e 1 23
e 2 3
e 2 4
e 2 6
e 2 7
e 2 8
e 2 13
e 2 14
e 2 15
e 2 20
e 2 21
e 2 22
e 2 23
e 2 26
e 2 27
e 2 36
e 3 7
e 3 8
e 3 9
e 3 15
e 3 20
e 3 23
e 3 26
e 3 27
e 3 28
e 3 30
e 3 33
e 3 36
e 3 38
e 4 9
e 4 11
e 4 13
e 4 14
e 4 16
e 4 19
e 5 6
e 5 10
e 5 11
e 5 12
e 5 17
e 5 24
e 5 29
e 5 32
e 5 34
e 6 7
e 6 10
e 6 12
e 6 15
e 6 21
e 6 22
e 6 24
e 7 8
e 7 15
e 7 20
e 7 21
e 7 22
e 7 23
e 7 26
e 7 27
e 7 28
e 7 30
e 8 15
e 8 20
e 8 21
e 8 22
e 8 23
e 8 26
e 8 27
e 8 28
e 8 30
e 8 33
e 8 36
e 8 38
e 9 13
e 9 14
e 9 16
e 9 23
e 9 36
e 9 37
e 10 11
e 10 12
e 10 17
e 10 24
e 10 29
e 10 32
e 10 34
e 11 12
e 11 13
e 11 14
e 11 17
e 11 18
e 11 19
e 12 15
e 12 17
e 12 21
e 12 24
e 12 29
e 12 32
e 12 34
e 13 14
e 13 16
e 13 17
e 13 18
e 13 19
e 14 16
e 14 17
e 14 18
e 14 19
e 15 20
e 15 21
e 15 22
e 15 27
e 15 28
e 16 31
e 16 37
e 17 18
e 17 19
e 17 29
e 17 32
e 18 19
e 18 25
e 18 35
e 19 25
e 19 35
e 20 21
e 20 22
e 20 23
e 20 26
e 20 27
e 20 28
e 20 30
e 20 33
e 20 38
e 21 22
e 21 27
e 21 28
e 22 27
e 22 28
e 22 30
e 23 26
e 23 27
e 23 30
e 23 33
e 23 36
e 23 37
e 23 38
e 24 29
e 24 32
e 24 34
e 25 31
e 25 35
e 26 27
e 26 28
e 26 30
e 26 33
e 26 36
e 26 38
e 27 28
e 27 30
e 27 33
e 27 38
e 28 30
e 28 33
e 28 38
e 29 32
e 29 34
e 30 33
e 30 38
e 32 34
e 33 36
e 33 38
e 36 37
